c random formula
p cnf 10 35
9 -2 -4 0
-6 5 10 0
3 5 4 0
-1 8 -5 0
6 3 -7 0
7 -3 9 0
3 -5 4 0
-1 9 3 0
-5 8 -6 0
-6 -10 -1 0
-3 -1 -7 0
8 -7 -9 0
1 7 -3 0
-5 4 3 0
10 6 8 0
2 10 3 0
3 -8 5 0
5 1 6 0
-7 -4 5 0
7 5 -9 0
-5 -6 10 0
8 -7 -3 0
-1 3 -5 0
-2 -1 8 0
-5 6 1 0
8 -7 2 0
1 -9 4 0
3 -1 -4 0
6 -9 -7 0
6 -10 -1 0
-7 -5 -4 0
4 -7 -5 0
-8 5 10 0
-8 -10 -9 0
-2 -7 10 0
